Traveling Salesman Problem/TSP_generados/Aleatorio1621103367_12.tsp
NAME: Aleatorio1621103367_12.tsp
COMMENT: Randomly generated scenario
TYPE: TSP
DIMENSION: 12
EDGE_WEIGHT_TYPE: ATT
NODE_COORD_SECTION
1 46.84 11.98
2 45.91 17.59
3 37.38 46.73
4 25.73 47.63
5 38.05 10.6
6 48.6 21.99
7 10.54 26.14
8 17.19 31.96
9 0.12 26.5
10 45.65 45.44
11 39.08 8.35
12 20.92 11.73
