Traveling Salesman Problem/TSP_generados/Aleatorio1621103367_12.opt.tour
NAME: Aleatorio1621103367_12.opt.tour
COMMENT: Optimal solution for Aleatorio1621103367_12 (145.3621015640283)
TYPE: TOUR
DIMENSION: 12
TOUR_SECTION
1 11 5 12 9 7 8 4 3 10 6 2
-1
EOF
